NAME : mEgtspf.pid5073.gtsp
TYPE : ATSP
DIMENSION : 27
EDGE_WEIGHT_TYPE : EXPLICIT
EDGE_WEIGHT_FORMAT : FULL_MATRIX
EDGE_WEIGHT_SECTION
999999 5368709 5368709 5368763 5368762 5368761 5368762 5368750 5368751 5368750 5368749 5368770 5368769 5368770 5368771 5368717 5368716 5368717 5368718 5368770 5368771 5368770 5368769 5368754 5368755 5368754 5368753 
5368709 999999 5368709 5368839 5368838 5368837 5368838 5368826 5368827 5368826 5368825 5368812 5368811 5368812 5368813 5368843 5368842 5368843 5368844 5368846 5368847 5368846 5368845 5368830 5368831 5368830 5368829 
5368709 5368709 999999 5368781 5368780 5368779 5368780 5368768 5368769 5368768 5368767 5368754 5368753 5368754 5368755 5368785 5368784 5368785 5368786 5368788 5368789 5368788 5368787 5368772 5368773 5368772 5368771 
5368709 5368709 5368709 999999 0 10737418 10737418 5368737 5368738 5368737 5368736 5368763 5368762 5368763 5368764 5368760 5368759 5368760 5368761 5368757 5368758 5368757 5368756 5368741 5368742 5368741 5368740 
5368709 5368709 5368709 10737418 999999 0 10737418 5368738 5368739 5368738 5368737 5368764 5368763 5368764 5368765 5368761 5368760 5368761 5368762 5368758 5368759 5368758 5368757 5368742 5368743 5368742 5368741 
5368709 5368709 5368709 10737418 10737418 999999 0 5368737 5368738 5368737 5368736 5368763 5368762 5368763 5368764 5368760 5368759 5368760 5368761 5368757 5368758 5368757 5368756 5368741 5368742 5368741 5368740 
5368709 5368709 5368709 0 10737418 10737418 999999 5368736 5368737 5368736 5368735 5368762 5368761 5368762 5368763 5368759 5368758 5368759 5368760 5368756 5368757 5368756 5368755 5368740 5368741 5368740 5368739 
5368709 5368709 5368709 5368737 5368736 5368735 5368736 999999 0 10737418 10737418 5368750 5368749 5368750 5368751 5368747 5368746 5368747 5368748 5368738 5368739 5368738 5368737 5368722 5368723 5368722 5368721 
5368709 5368709 5368709 5368738 5368737 5368736 5368737 10737418 999999 0 10737418 5368751 5368750 5368751 5368752 5368748 5368747 5368748 5368749 5368739 5368740 5368739 5368738 5368723 5368724 5368723 5368722 
5368709 5368709 5368709 5368739 5368738 5368737 5368738 10737418 10737418 999999 0 5368752 5368751 5368752 5368753 5368749 5368748 5368749 5368750 5368740 5368741 5368740 5368739 5368724 5368725 5368724 5368723 
5368709 5368709 5368709 5368738 5368737 5368736 5368737 0 10737418 10737418 999999 5368751 5368750 5368751 5368752 5368748 5368747 5368748 5368749 5368739 5368740 5368739 5368738 5368723 5368724 5368723 5368722 
5368709 5368709 5368709 5368765 5368764 5368763 5368764 5368752 5368753 5368752 5368751 999999 0 10737418 10737418 5368769 5368768 5368769 5368770 5368772 5368773 5368772 5368771 5368756 5368757 5368756 5368755 
5368709 5368709 5368709 5368764 5368763 5368762 5368763 5368751 5368752 5368751 5368750 10737418 999999 0 10737418 5368768 5368767 5368768 5368769 5368771 5368772 5368771 5368770 5368755 5368756 5368755 5368754 
5368709 5368709 5368709 5368763 5368762 5368761 5368762 5368750 5368751 5368750 5368749 10737418 10737418 999999 0 5368767 5368766 5368767 5368768 5368770 5368771 5368770 5368769 5368754 5368755 5368754 5368753 
5368709 5368709 5368709 5368764 5368763 5368762 5368763 5368751 5368752 5368751 5368750 0 10737418 10737418 999999 5368768 5368767 5368768 5368769 5368771 5368772 5368771 5368770 5368755 5368756 5368755 5368754 
5368709 5368709 5368709 5368762 5368761 5368760 5368761 5368749 5368750 5368749 5368748 5368769 5368768 5368769 5368770 999999 0 10737418 10737418 5368769 5368770 5368769 5368768 5368753 5368754 5368753 5368752 
5368709 5368709 5368709 5368761 5368760 5368759 5368760 5368748 5368749 5368748 5368747 5368768 5368767 5368768 5368769 10737418 999999 0 10737418 5368768 5368769 5368768 5368767 5368752 5368753 5368752 5368751 
5368709 5368709 5368709 5368760 5368759 5368758 5368759 5368747 5368748 5368747 5368746 5368767 5368766 5368767 5368768 10737418 10737418 999999 0 5368767 5368768 5368767 5368766 5368751 5368752 5368751 5368750 
5368709 5368709 5368709 5368761 5368760 5368759 5368760 5368748 5368749 5368748 5368747 5368768 5368767 5368768 5368769 0 10737418 10737418 999999 5368768 5368769 5368768 5368767 5368752 5368753 5368752 5368751 
5368709 5368709 5368709 5368757 5368756 5368755 5368756 5368738 5368739 5368738 5368737 5368770 5368769 5368770 5368771 5368767 5368766 5368767 5368768 999999 0 10737418 10737418 5368726 5368725 5368726 5368727 
5368709 5368709 5368709 5368758 5368757 5368756 5368757 5368739 5368740 5368739 5368738 5368771 5368770 5368771 5368772 5368768 5368767 5368768 5368769 10737418 999999 0 10737418 5368727 5368726 5368727 5368728 
5368709 5368709 5368709 5368759 5368758 5368757 5368758 5368740 5368741 5368740 5368739 5368772 5368771 5368772 5368773 5368769 5368768 5368769 5368770 10737418 10737418 999999 0 5368728 5368727 5368728 5368729 
5368709 5368709 5368709 5368758 5368757 5368756 5368757 5368739 5368740 5368739 5368738 5368771 5368770 5368771 5368772 5368768 5368767 5368768 5368769 0 10737418 10737418 999999 5368727 5368726 5368727 5368728 
5368709 5368709 5368709 5368741 5368740 5368739 5368740 5368722 5368723 5368722 5368721 5368754 5368753 5368754 5368755 5368751 5368750 5368751 5368752 5368728 5368729 5368728 5368727 999999 0 10737418 10737418 
5368709 5368709 5368709 5368742 5368741 5368740 5368741 5368723 5368724 5368723 5368722 5368755 5368754 5368755 5368756 5368752 5368751 5368752 5368753 5368727 5368728 5368727 5368726 10737418 999999 0 10737418 
5368709 5368709 5368709 5368743 5368742 5368741 5368742 5368724 5368725 5368724 5368723 5368756 5368755 5368756 5368757 5368753 5368752 5368753 5368754 5368726 5368727 5368726 5368725 10737418 10737418 999999 0 
5368709 5368709 5368709 5368742 5368741 5368740 5368741 5368723 5368724 5368723 5368722 5368755 5368754 5368755 5368756 5368752 5368751 5368752 5368753 5368727 5368728 5368727 5368726 0 10737418 10737418 999999 
EOF
